9454.0
1 0 1 1 0 1 1 1 0 1 
3 11 20 21 22 23 24 25 38 40 53 54 55 

17 37 43 58 59 60 82 83 84 85 88 90 91 92 93 94 95 96 97 98 99 
0 2 8 19 27 28 32 33 34 49 50 64 65 67 70 75 76 77 78 79 80 

6 7 18 35 44 45 46 47 48 51 81 
1 39 52 56 57 66 71 72 73 74 86 
9 10 26 29 30 31 61 62 63 68 69 87 89 

4 5 12 13 14 15 16 36 41 42 
